NAME: tsp40_13
COMMENT: 40-tsp problem (Padberg/Rinaldi)
TYPE: TSP
DIMENSION: 40
EDGE_WEIGHT_TYPE : EUC_2D
NODE_COORD_SECTION
1 27 1
2 38 21
3 39 24
4 13 2
5 24 7
6 27 37
7 27 5
8 14 10
9 40 28
10 31 4
11 15 38
12 33 25
13 37 18
14 33 36
15 36 21
16 29 15
17 30 28
18 14 7
19 1 31
20 16 21
21 13 1
22 29 27
23 31 5
24 11 30
25 13 19
26 30 38
27 40 30
28 33 17
29 32 14
30 13 14
31 27 33
32 37 38
33 12 9
34 26 18
35 18 1
36 17 21
37 40 15
38 3 2
39 2 13
40 37 20
